WARNING: for repeatability, setting FPU to use double precision
============================[ Problem Statistics ]=============================
|                                                                             |
|  Number of variables:         13047                                         |
|  Number of clauses:           44432                                         |
|  Parse time:                   0.01 s                                       |
|                                                                             |
c ============================[ Search Statistics ]==============================
c | Conflicts |          ORIGINAL         |          LEARNT          | Progress |
c |           |    Vars  Clauses Literals |    Limit  Clauses Lit/Cl |          |
c ===============================================================================
We had 60 decisions of which only 0 were on extended
We had 1286153 decisions of which only 0 were on extended
We had 1815941 decisions of which only 0 were on extended
We had 2016563 decisions of which only 0.0131412 were on extended
We had 2246449 decisions of which only 0.0465179 were on extended
c Switched to VSIDS.
We had 2564765 decisions of which only 0.118997 were on extended
We had 2581169 decisions of which only 0.133699 were on extended
We had 2596629 decisions of which only 0.149116 were on extended
We had 2611173 decisions of which only 0.166056 were on extended
We had 2634357 decisions of which only 0.174881 were on extended
c Switched to LRB.
We had 2648610 decisions of which only 0.180585 were on extended
We had 2663021 decisions of which only 0.197482 were on extended
We had 2676625 decisions of which only 0.216766 were on extended
We had 2690000 decisions of which only 0.238216 were on extended
We had 2703163 decisions of which only 0.253666 were on extended
We had 2715985 decisions of which only 0.269847 were on extended
c Switched to VSIDS.
We had 2728627 decisions of which only 0.278785 were on extended
We had 2741221 decisions of which only 0.29662 were on extended
We had 2753693 decisions of which only 0.313179 were on extended
Window full
Continue
We had 2766216 decisions of which only 0.335657 were on extended
c Switched to LRB.
We had 2779354 decisions of which only 0.35645 were on extended
We had 2791598 decisions of which only 0.377454 were on extended
We had 2804010 decisions of which only 0.403779 were on extended
We had 2816920 decisions of which only 0.419927 were on extended
We had 2829113 decisions of which only 0.437982 were on extended
We had 2841457 decisions of which only 0.458532 were on extended
c Switched to VSIDS.
We had 2854291 decisions of which only 0.48562 were on extended
We had 2866435 decisions of which only 0.514123 were on extended
We had 2879242 decisions of which only 0.536461 were on extended
Window full
Continue
We had 2891801 decisions of which only 0.558545 were on extended
We had 2904785 decisions of which only 0.583417 were on extended
c Switched to LRB.
We had 2917424 decisions of which only 0.605191 were on extended
We had 2929723 decisions of which only 0.619171 were on extended
We had 2942096 decisions of which only 0.638592 were on extended
We had 2953928 decisions of which only 0.655906 were on extended
We had 2965640 decisions of which only 0.67203 were on extended
We had 2977388 decisions of which only 0.688154 were on extended
We had 2988795 decisions of which only 0.706071 were on extended
We had 3000581 decisions of which only 0.719861 were on extended
c Switched to VSIDS.
Window full
Continue
We had 3013075 decisions of which only 0.744389 were on extended
We had 3025533 decisions of which only 0.764824 were on extended
We had 3037754 decisions of which only 0.78479 were on extended
We had 3050276 decisions of which only 0.806091 were on extended
We had 3062504 decisions of which only 0.827362 were on extended
We had 3075654 decisions of which only 0.848177 were on extended
We had 3088218 decisions of which only 0.874744 were on extended
c Switched to LRB.
We had 3100468 decisions of which only 0.899251 were on extended
We had 3112431 decisions of which only 0.91353 were on extended
We had 3124483 decisions of which only 0.930234 were on extended
Window full
Continue
We had 3136131 decisions of which only 0.945911 were on extended
We had 3148372 decisions of which only 0.956177 were on extended
We had 3160483 decisions of which only 0.975326 were on extended
We had 3172496 decisions of which only 0.997921 were on extended
We had 3184573 decisions of which only 1.00544 were on extended
c Switched to VSIDS.
We had 3196638 decisions of which only 1.01882 were on extended
We had 3209347 decisions of which only 1.04277 were on extended
We had 3221944 decisions of which only 1.06917 were on extended
We had 3234169 decisions of which only 1.09657 were on extended
We had 3246326 decisions of which only 1.12925 were on extended
Window full
Continue
We had 3259711 decisions of which only 1.1575 were on extended
We had 3271914 decisions of which only 1.18001 were on extended
We had 3284700 decisions of which only 1.20264 were on extended
c Switched to LRB.
We had 3297359 decisions of which only 1.21667 were on extended
We had 3309026 decisions of which only 1.23103 were on extended
We had 3320623 decisions of which only 1.24949 were on extended
We had 3332396 decisions of which only 1.26966 were on extended
We had 3344323 decisions of which only 1.29022 were on extended
We had 3355841 decisions of which only 1.31362 were on extended
We had 3368560 decisions of which only 1.33003 were on extended
Window full
Continue
We had 3380700 decisions of which only 1.34079 were on extended
We had 3392566 decisions of which only 1.35423 were on extended
c Switched to VSIDS.
We had 3405128 decisions of which only 1.36156 were on extended
We had 3417690 decisions of which only 1.38219 were on extended
We had 3430256 decisions of which only 1.40675 were on extended
We had 3442744 decisions of which only 1.43107 were on extended
We had 3455218 decisions of which only 1.45201 were on extended
We had 3467437 decisions of which only 1.47394 were on extended
We had 3480075 decisions of which only 1.49517 were on extended
We had 3492400 decisions of which only 1.51575 were on extended
Window full
Continue
We had 3505167 decisions of which only 1.53365 were on extended
We had 3517461 decisions of which only 1.55126 were on extended
We had 3529475 decisions of which only 1.56513 were on extended
c Switched to LRB.
We had 3541848 decisions of which only 1.57409 were on extended
We had 3553552 decisions of which only 1.57732 were on extended
We had 3565034 decisions of which only 1.58916 were on extended
We had 3576699 decisions of which only 1.60369 were on extended
We had 3588373 decisions of which only 1.61087 were on extended
We had 3599919 decisions of which only 1.61454 were on extended
We had 3611460 decisions of which only 1.62347 were on extended
Window full
Continue
We had 3623191 decisions of which only 1.63707 were on extended
We had 3634827 decisions of which only 1.63961 were on extended
We had 3646507 decisions of which only 1.64977 were on extended
We had 3658139 decisions of which only 1.66235 were on extended
c ===============================================================================
restarts                  : 1982
conflicts                 : 922697         (2267 /sec)
decisions                 : 3661292        (0.00 % random) (8997 /sec)
propagations              : 747584093      (1836997 /sec)
conflict literals         : 41289011       (46.81 % deleted)

conflicts w/ DIP found    : 664206         (71.99 % of conflicts)
conflicts w/ dangerous DIP: 0              (0.00 % of conflicts)
conflicts w/ DIP-learning : 2932           (0.32 % of conflicts)
decisions on ext vars     : 60994          (1.67 % of decisions)
total ext vars            : 1021        
tried delete ext vars     : 0           
deleted ext vars          : 0           
max ext vars              : 1021        

Memory used               : 104.00 MB
CPU time                  : 406.96 s
DIP computation time      : 11.2716 s (2.77 % of total time)
ER_sel time               : 0.971617 s
ER_add time               : 0.004946 s
ER_delC time              : 0 s
ER_delV time              : 0 s
ER_sub time               : 1.32531 s
ER_stat time              : 0 s

UNSATISFIABLE
